results/res_prop_muc/res_Cimatti_mathsat_cores/QF_UF/SEQ010_size6.smt.smt2.out

real	0m5.140s
user	0m4.824s
sys	0m0.276s
