results/res_prop_muc/res_Cimatti_mathsat_cores/QF_UF/SEQ010_size6.smt.smt2.res
unsat
( _c0
  _c10
  _c100
  _c102
  _c106
  _c107
  _c11
  _c110
  _c111
  _c113
  _c114
  _c117
  _c119
  _c12
  _c120
  _c121
  _c125
  _c126
  _c127
  _c128
  _c129
  _c131
  _c132
  _c138
  _c14
  _c143
  _c146
  _c147
  _c148
  _c150
  _c151
  _c152
  _c153
  _c154
  _c156
  _c158
  _c159
  _c16
  _c160
  _c162
  _c168
  _c169
  _c17
  _c170
  _c171
  _c172
  _c174
  _c18
  _c182
  _c183
  _c184
  _c185
  _c187
  _c189
  _c190
  _c191
  _c194
  _c195
  _c196
  _c197
  _c2
  _c20
  _c200
  _c203
  _c205
  _c206
  _c21
  _c211
  _c212
  _c213
  _c214
  _c215
  _c217
  _c218
  _c219
  _c220
  _c221
  _c222
  _c223
  _c224
  _c225
  _c226
  _c227
  _c228
  _c229
  _c23
  _c230
  _c231
  _c232
  _c233
  _c234
  _c235
  _c236
  _c237
  _c238
  _c239
  _c24
  _c240
  _c241
  _c242
  _c243
  _c244
  _c245
  _c246
  _c247
  _c248
  _c249
  _c250
  _c251
  _c252
  _c253
  _c254
  _c255
  _c256
  _c257
  _c258
  _c259
  _c26
  _c260
  _c261
  _c262
  _c263
  _c264
  _c265
  _c266
  _c267
  _c268
  _c269
  _c27
  _c270
  _c271
  _c278
  _c279
  _c28
  _c280
  _c281
  _c282
  _c283
  _c284
  _c285
  _c286
  _c287
  _c288
  _c289
  _c290
  _c291
  _c292
  _c293
  _c294
  _c295
  _c296
  _c297
  _c298
  _c299
  _c3
  _c30
  _c300
  _c301
  _c302
  _c303
  _c304
  _c305
  _c306
  _c307
  _c308
  _c309
  _c310
  _c311
  _c312
  _c313
  _c32
  _c321
  _c322
  _c323
  _c324
  _c325
  _c327
  _c328
  _c329
  _c33
  _c330
  _c331
  _c333
  _c334
  _c335
  _c336
  _c337
  _c339
  _c34
  _c340
  _c341
  _c342
  _c343
  _c344
  _c345
  _c346
  _c347
  _c348
  _c349
  _c35
  _c351
  _c352
  _c353
  _c354
  _c355
  _c364
  _c365
  _c366
  _c367
  _c370
  _c371
  _c372
  _c373
  _c376
  _c377
  _c378
  _c379
  _c380
  _c381
  _c382
  _c383
  _c384
  _c385
  _c387
  _c388
  _c389
  _c39
  _c390
  _c391
  _c394
  _c395
  _c396
  _c397
  _c4
  _c40
  _c407
  _c408
  _c409
  _c41
  _c413
  _c414
  _c415
  _c416
  _c417
  _c418
  _c419
  _c42
  _c420
  _c421
  _c423
  _c424
  _c425
  _c426
  _c427
  _c43
  _c430
  _c431
  _c432
  _c433
  _c437
  _c438
  _c439
  _c45
  _c450
  _c451
  _c452
  _c453
  _c454
  _c455
  _c456
  _c457
  _c459
  _c46
  _c460
  _c461
  _c462
  _c463
  _c465
  _c466
  _c467
  _c468
  _c469
  _c47
  _c473
  _c474
  _c475
  _c48
  _c480
  _c481
  _c489
  _c490
  _c491
  _c492
  _c493
  _c494
  _c496
  _c497
  _c498
  _c499
  _c5
  _c500
  _c501
  _c503
  _c504
  _c505
  _c506
  _c507
  _c508
  _c510
  _c511
  _c512
  _c513
  _c514
  _c515
  _c517
  _c518
  _c519
  _c52
  _c520
  _c521
  _c522
  _c524
  _c525
  _c526
  _c527
  _c528
  _c53
  _c530
  _c531
  _c532
  _c533
  _c537
  _c538
  _c54
  _c541
  _c542
  _c543
  _c553
  _c554
  _c555
  _c556
  _c557
  _c558
  _c559
  _c560
  _c561
  _c562
  _c563
  _c564
  _c565
  _c566
  _c567
  _c568
  _c569
  _c57
  _c570
  _c571
  _c572
  _c573
  _c574
  _c575
  _c576
  _c577
  _c578
  _c579
  _c580
  _c581
  _c582
  _c583
  _c584
  _c585
  _c586
  _c587
  _c588
  _c589
  _c59
  _c6
  _c60
  _c600
  _c601
  _c602
  _c603
  _c604
  _c605
  _c606
  _c609
  _c610
  _c611
  _c613
  _c614
  _c615
  _c616
  _c620
  _c627
  _c628
  _c63
  _c630
  _c631
  _c632
  _c635
  _c636
  _c639
  _c64
  _c641
  _c642
  _c644
  _c648
  _c655
  _c657
  _c658
  _c659
  _c66
  _c663
  _c665
  _c666
  _c667
  _c668
  _c670
  _c671
  _c673
  _c675
  _c679
  _c682
  _c685
  _c687
  _c69
  _c698
  _c699
  _c70
  _c700
  _c701
  _c702
  _c704
  _c705
  _c706
  _c707
  _c708
  _c709
  _c71
  _c710
  _c711
  _c712
  _c713
  _c714
  _c716
  _c717
  _c718
  _c719
  _c720
  _c721
  _c73
  _c74
  _c76
  _c77
  _c78
  _c79
  _c80
  _c82
  _c83
  _c84
  _c85
  _c86
  _c88
  _c89
  _c9
  _c90
  _c95
  _c96 )
